language Essence 1.3

letting class be
        function(1 --> 1, 2 --> 1, 3 --> 2, 4 --> 2, 5 --> 2, 6 --> 2, 7 --> 2, 8 --> 2, 9 --> 1, 10 --> 2, 11 --> 1,
                 12 --> 1, 13 --> 2, 14 --> 1, 15 --> 1, 16 --> 2, 17 --> 2, 18 --> 2, 19 --> 2, 20 --> 2, 21 --> 2,
                 22 --> 2)
letting deck_length be 72
letting deck_width be 77
letting length be
        function(1 --> 1, 2 --> 25, 3 --> 1, 4 --> 1, 5 --> 1, 6 --> 24, 7 --> 1, 8 --> 1, 9 --> 32, 10 --> 69,
                 11 --> 1, 12 --> 49, 13 --> 1, 14 --> 51, 15 --> 1, 16 --> 1, 17 --> 1, 18 --> 1, 19 --> 1, 20 --> 1,
                 21 --> 3, 22 --> 24)
letting n_classes be 2
letting n_containers be 22
letting separation be function()
letting width be
        function(1 --> 1, 2 --> 4, 3 --> 12, 4 --> 1, 5 --> 1, 6 --> 2, 7 --> 1, 8 --> 10, 9 --> 6, 10 --> 10, 11 --> 1,
                 12 --> 5, 13 --> 1, 14 --> 2, 15 --> 1, 16 --> 6, 17 --> 2, 18 --> 1, 19 --> 1, 20 --> 5, 21 --> 58,
                 22 --> 19)
